
Gurobi 11.0.0 (win64, C++) logging started Tue Jul 29 16:01:54 2025

Set parameter TokenServer to value "141.76.38.119"
### START HEURISTIC APPROACH APPROACH ###
ProblemVariant: 1
### START PREPROCESSING ###
## Start start solution procedure ##
Start solution with 17 Vehicles and total costs 1191.01 in 24.2676 s.
### END PREPROCESSING ###
Route 0 0-3-32-9-39-40-0 : weight util 0.650000 | volume util 0.611444 | infeasible with packing heuristic | feasible with CP model
Route 1 0-5-21-61-28-74-0 : weight util 0.572222 | volume util 0.497978 | infeasible with packing heuristic | feasible with CP model
Route 2 0-6-73-22-62-2-0 : weight util 0.450000 | volume util 0.618222 | infeasible with packing heuristic | feasible with CP model
Route 3 0-7-35-46-0 : weight util 0.288889 | volume util 0.363089 | infeasible with packing heuristic | feasible with CP model
Route 4 0-10-31-25-55-18-50-0 : weight util 0.594444 | volume util 0.709267 | infeasible with packing heuristic | feasible with CP model
Route 5 0-12-17-0 : weight util 0.200000 | volume util 0.365422 | infeasible with packing heuristic | feasible with CP model
Route 6 0-15-57-13-34-0 : weight util 0.294444 | volume util 0.623267 | infeasible with packing heuristic | feasible with CP model
Route 7 0-26-58-72-0 : weight util 0.222222 | volume util 0.568578 | infeasible with packing heuristic | feasible with CP model
Route 8 0-29-20-36-69-0 : weight util 0.305556 | volume util 0.655378 | infeasible with packing heuristic | feasible with CP model
Route 9 0-30-48-4-0 : weight util 0.400000 | volume util 0.562644 | infeasible with packing heuristic | feasible with CP model
Route 10 0-38-65-66-11-0 : weight util 0.594444 | volume util 0.566022 | infeasible with packing heuristic | feasible with CP model
Route 11 0-43-41-42-64-75-0 : weight util 0.511111 | volume util 0.632111 | infeasible with packing heuristic | feasible with CP model
Route 12 0-44-24-49-16-51-0 : weight util 0.444444 | volume util 0.620600 | infeasible with packing heuristic | feasible with CP model
Route 13 0-47-71-60-70-37-0 : weight util 0.333333 | volume util 0.718222 | infeasible with packing heuristic | feasible with CP model
Route 14 0-63-23-56-1-33-0 : weight util 0.488889 | volume util 0.558844 | infeasible with packing heuristic | feasible with CP model
Route 15 0-67-8-54-19-59-14-53-0 : weight util 0.855556 | volume util 0.652422 | infeasible with packing heuristic | feasible with CP model
Route 16 0-68-45-27-52-0 : weight util 0.372222 | volume util 0.525556 | infeasible with packing heuristic | feasible with CP model
